(set-info :smt-lib-version 2.6)
(set-logic ALL)
(set-info :source |
Generated on: 2026-06-22
Generator: ppTransSmt github.com/CLEARSY/pptranspog
Application: Discharging a proof obligation generated by aTelierB from an anonymized B machine
Target solver: CVC5 (--mbqi --enum-inst)
Time limit: 1200.0
|)
(set-info :license "www.gnu.org/licenses/gpl-3.0.en.html")
(set-info :category "industrial")
(set-info :status unknown)

(set-option :print-success false)
; Prelude
(declare-sort P 1)
(declare-fun mem0 (Int (P Int)) Bool)
(declare-sort C 2)
(define-fun MinInt () Int (- 2147483648))
(define-fun MaxInt () Int 2147483647)
; Global declarations
(declare-fun g_s0_0 () (P Int))
(declare-fun g_s10_10 () Int)
(declare-fun g_s11_11 () Int)
(declare-fun g_s12_12 () Int)
(declare-fun g_s13_13 () (P (C (C Int Int) Int)))
(declare-fun g_s14_14 () Int)
(declare-fun g_s15_15 () Int)
(declare-fun g_s16_16 () (P Int))
(declare-fun g_s17_17 () (P Int))
(declare-fun g_s18_18 () (P Int))
(declare-fun g_s19_19 () Int)
(declare-fun g_s1_1 () (P Int))
(declare-fun g_s20_20 () Int)
(declare-fun g_s21_21 () (P (C Int Int)))
(declare-fun g_s22_22 () (P (C Int (P Int))))
(declare-fun g_s23_23 () (P (C Int (P Int))))
(declare-fun g_s24_24 () (P (C Int Int)))
(declare-fun g_s25_25 () (P Int))
(declare-fun g_s26_26 () (P (C Int Bool)))
(declare-fun g_s27_27 () (P (C Int Int)))
(declare-fun g_s28_28 () (P (C Int Int)))
(declare-fun g_s29_29 () (P (C Int Int)))
(declare-fun g_s2_2 () (P Int))
(declare-fun g_s30_30 () (P Int))
(declare-fun g_s31_31 () (P (C Int Int)))
(declare-fun g_s32_32 () (P (C Int Int)))
(declare-fun g_s33_37 () Int)
(declare-fun g_s36_33 () (P (C Int Int)))
(declare-fun g_s37_34 () (P (C Int Int)))
(declare-fun g_s38_35 () (P (C Int Bool)))
(declare-fun g_s39_36 () (P (C Int Int)))
(declare-fun g_s3_3 () (P Int))
(declare-fun g_s4_4 () (P Int))
(declare-fun g_s5_5 () Int)
(declare-fun g_s6_6 () Int)
(declare-fun g_s7_7 () Int)
(declare-fun g_s8_8 () Int)
(declare-fun g_s9_9 () Int)
(declare-fun mem2 ( Int Int (P (C Int Int))) Bool)
(declare-fun mem3 ( Int Int Int (P (C (C Int Int) Int))) Bool)
(declare-fun mem4 ( Int (P Int) (P (C Int (P Int)))) Bool)
(declare-fun mem5 ( Int Bool (P (C Int Bool))) Bool)
; Defines
(define-fun |def_lprp_0| () Bool (and  (not (forall ( (x_3 Int) ) (= (mem0 x_3 g_s0_0) false))) (and  (forall ( (x_6 Int) ) (=> (mem0 x_6 g_s0_0) true)) (exists ( (x_4 Int) (x_5 (P (C Int Int))) ) (and (and (exists ( (x_7 (P (C Int Int))) ) (and (forall ( (x_8 Int) (x_9 Int) ) (= (mem2 x_9 x_8 x_7) (mem2 x_9 x_8 x_5))) (forall ( (x_10 Int) (x_11 Int) (x_12 Int) ) (=> (and  (mem2 x_10 x_11 x_7) (mem2 x_10 x_12 x_7)) (= x_11 x_12))) (forall ( (x_13 Int) ) (= (and (>= x_13 1) (<= x_13 x_4)) (exists ( (x_14 Int) ) (mem2 x_13 x_14 x_7)))) (forall ( (x_15 Int) ) (=> (exists ( (x_16 Int) ) (mem2 x_16 x_15 x_7)) (mem0 x_15 g_s0_0))))) (forall ( (x_17 Int) ) (=> (mem0 x_17 g_s0_0) (exists ( (x_18 Int) ) (mem2 x_18 x_17 x_5))))) (forall ( (x_19 Int) (x_20 Int) (x_21 Int) ) (=> (and  (mem2 x_20 x_19 x_5) (mem2 x_21 x_19 x_5)) (= x_20 x_21))))))))
(define-fun |def_lprp_1| () Bool (and  (not (forall ( (x_22 Int) ) (= (mem0 x_22 g_s1_1) false))) (and  (forall ( (x_25 Int) ) (=> (mem0 x_25 g_s1_1) true)) (exists ( (x_23 Int) (x_24 (P (C Int Int))) ) (and (and (exists ( (x_26 (P (C Int Int))) ) (and (forall ( (x_27 Int) (x_28 Int) ) (= (mem2 x_28 x_27 x_26) (mem2 x_28 x_27 x_24))) (forall ( (x_29 Int) (x_30 Int) (x_31 Int) ) (=> (and  (mem2 x_29 x_30 x_26) (mem2 x_29 x_31 x_26)) (= x_30 x_31))) (forall ( (x_32 Int) ) (= (and (>= x_32 1) (<= x_32 x_23)) (exists ( (x_33 Int) ) (mem2 x_32 x_33 x_26)))) (forall ( (x_34 Int) ) (=> (exists ( (x_35 Int) ) (mem2 x_35 x_34 x_26)) (mem0 x_34 g_s1_1))))) (forall ( (x_36 Int) ) (=> (mem0 x_36 g_s1_1) (exists ( (x_37 Int) ) (mem2 x_37 x_36 x_24))))) (forall ( (x_38 Int) (x_39 Int) (x_40 Int) ) (=> (and  (mem2 x_39 x_38 x_24) (mem2 x_40 x_38 x_24)) (= x_39 x_40))))))))
(define-fun |def_lprp_2| () Bool (and  (not (forall ( (x_41 Int) ) (= (mem0 x_41 g_s2_2) false))) (and  (forall ( (x_44 Int) ) (=> (mem0 x_44 g_s2_2) true)) (exists ( (x_42 Int) (x_43 (P (C Int Int))) ) (and (and (exists ( (x_45 (P (C Int Int))) ) (and (forall ( (x_46 Int) (x_47 Int) ) (= (mem2 x_47 x_46 x_45) (mem2 x_47 x_46 x_43))) (forall ( (x_48 Int) (x_49 Int) (x_50 Int) ) (=> (and  (mem2 x_48 x_49 x_45) (mem2 x_48 x_50 x_45)) (= x_49 x_50))) (forall ( (x_51 Int) ) (= (and (>= x_51 1) (<= x_51 x_42)) (exists ( (x_52 Int) ) (mem2 x_51 x_52 x_45)))) (forall ( (x_53 Int) ) (=> (exists ( (x_54 Int) ) (mem2 x_54 x_53 x_45)) (mem0 x_53 g_s2_2))))) (forall ( (x_55 Int) ) (=> (mem0 x_55 g_s2_2) (exists ( (x_56 Int) ) (mem2 x_56 x_55 x_43))))) (forall ( (x_57 Int) (x_58 Int) (x_59 Int) ) (=> (and  (mem2 x_58 x_57 x_43) (mem2 x_59 x_57 x_43)) (= x_58 x_59))))))))
(define-fun |def_lprp_3| () Bool (forall ( (x_60 Int) ) (= (mem0 x_60 g_s3_3) true)))
(define-fun |def_lprp_4| () Bool (and  (forall ( (x_63 Int) ) (=> (mem0 x_63 g_s4_4) (mem0 x_63 g_s3_3))) (exists ( (x_61 Int) (x_62 (P (C Int Int))) ) (and (and (exists ( (x_64 (P (C Int Int))) ) (and (forall ( (x_65 Int) (x_66 Int) ) (= (mem2 x_66 x_65 x_64) (mem2 x_66 x_65 x_62))) (forall ( (x_67 Int) (x_68 Int) (x_69 Int) ) (=> (and  (mem2 x_67 x_68 x_64) (mem2 x_67 x_69 x_64)) (= x_68 x_69))) (forall ( (x_70 Int) ) (= (and (>= x_70 1) (<= x_70 x_61)) (exists ( (x_71 Int) ) (mem2 x_70 x_71 x_64)))) (forall ( (x_72 Int) ) (=> (exists ( (x_73 Int) ) (mem2 x_73 x_72 x_64)) (mem0 x_72 g_s4_4))))) (forall ( (x_74 Int) ) (=> (mem0 x_74 g_s4_4) (exists ( (x_75 Int) ) (mem2 x_75 x_74 x_62))))) (forall ( (x_76 Int) (x_77 Int) (x_78 Int) ) (=> (and  (mem2 x_77 x_76 x_62) (mem2 x_78 x_76 x_62)) (= x_77 x_78)))))))
(define-fun |def_lprp_5| () Bool (forall ( (x_79 Int) ) (= (<= 0 x_79) (<= 0 x_79))))
(define-fun |def_lprp_6| () Bool (<= 0 g_s5_5))
(define-fun |def_lprp_7| () Bool (<= 0 g_s6_6))
(define-fun |def_lprp_8| () Bool (<= 0 g_s7_7))
(define-fun |def_lprp_9| () Bool (<= 0 g_s8_8))
(define-fun |def_lprp_10| () Bool (<= 0 g_s9_9))
(define-fun |def_lprp_11| () Bool (<= 0 g_s10_10))
(define-fun |def_lprp_12| () Bool (<= 0 g_s11_11))
(define-fun |def_lprp_13| () Bool (<= 0 g_s12_12))
(define-fun |def_lprp_14| () Bool (exists ( (x_80 (P (C (C Int Int) Int))) ) (and (forall ( (x_81 Int) (x_82 Int) (x_83 Int) ) (= (mem3 x_83 x_82 x_81 x_80) (mem3 x_83 x_82 x_81 g_s13_13))) (forall ( (x_84 Int) (x_85 Int) (x_86 Int) (x_87 Int) ) (=> (and  (mem3 x_85 x_84 x_86 x_80) (mem3 x_85 x_84 x_87 x_80)) (= x_86 x_87))) (forall ( (x_88 Int) (x_89 Int) ) (= (and (mem0 x_89 g_s0_0) (<= 0 x_88)) (exists ( (x_90 Int) ) (mem3 x_89 x_88 x_90 x_80)))) (forall ( (x_91 Int) ) (=> (exists ( (x_92 Int) (x_93 Int) ) (mem3 x_93 x_92 x_91 x_80)) (<= 0 x_91))))))
(define-fun |def_lprp_15| () Bool (<= 0 g_s14_14))
(define-fun |def_lprp_16| () Bool (<= 0 g_s15_15))
(define-fun |def_inv_0| () Bool (forall ( (x_94 Int) ) (=> (mem0 x_94 g_s16_16) (mem0 x_94 g_s1_1))))
(define-fun |def_inv_1| () Bool (forall ( (x_95 Int) ) (=> (mem0 x_95 g_s17_17) (mem0 x_95 g_s0_0))))
(define-fun |def_inv_2| () Bool (forall ( (x_96 Int) ) (=> (mem0 x_96 g_s18_18) (mem0 x_96 g_s2_2))))
(define-fun |def_inv_3| () Bool (<= 0 g_s19_19))
(define-fun |def_inv_4| () Bool (<= 0 g_s20_20))
(define-fun |def_inv_5| () Bool (<= g_s19_19 g_s20_20))
(define-fun |def_inv_6| () Bool (exists ( (x_97 (P (C Int Int))) ) (and (forall ( (x_98 Int) (x_99 Int) ) (= (mem2 x_99 x_98 x_97) (mem2 x_99 x_98 g_s21_21))) (forall ( (x_100 Int) (x_101 Int) (x_102 Int) ) (=> (and  (mem2 x_100 x_101 x_97) (mem2 x_100 x_102 x_97)) (= x_101 x_102))) (forall ( (x_103 Int) ) (= (mem0 x_103 g_s17_17) (exists ( (x_104 Int) ) (mem2 x_103 x_104 x_97)))) (forall ( (x_105 Int) ) (=> (exists ( (x_106 Int) ) (mem2 x_106 x_105 x_97)) (mem0 x_105 g_s3_3))))))
(define-fun |def_inv_7| () Bool (exists ( (x_107 (P (C Int (P Int)))) ) (and (forall ( (x_108 (P Int)) (x_109 Int) ) (= (mem4 x_109 x_108 x_107) (mem4 x_109 x_108 g_s22_22))) (forall ( (x_110 Int) (x_111 (P Int)) (x_112 (P Int)) ) (=> (and  (mem4 x_110 x_111 x_107) (mem4 x_110 x_112 x_107)) (forall ( (x_113 Int) ) (= (mem0 x_113 x_111) (mem0 x_113 x_112))))) (forall ( (x_114 Int) ) (= (mem0 x_114 g_s17_17) (exists ( (x_115 (P Int)) ) (mem4 x_114 x_115 x_107)))) (forall ( (x_116 (P Int)) ) (=> (exists ( (x_117 Int) ) (mem4 x_117 x_116 x_107)) (forall ( (x_118 Int) ) (=> (mem0 x_118 x_116) (mem0 x_118 g_s3_3))))))))
(define-fun |def_inv_8| () Bool (exists ( (x_119 (P (C Int (P Int)))) ) (and (forall ( (x_120 (P Int)) (x_121 Int) ) (= (mem4 x_121 x_120 x_119) (mem4 x_121 x_120 g_s23_23))) (forall ( (x_122 Int) (x_123 (P Int)) (x_124 (P Int)) ) (=> (and  (mem4 x_122 x_123 x_119) (mem4 x_122 x_124 x_119)) (forall ( (x_125 Int) ) (= (mem0 x_125 x_123) (mem0 x_125 x_124))))) (forall ( (x_126 Int) ) (= (mem0 x_126 g_s17_17) (exists ( (x_127 (P Int)) ) (mem4 x_126 x_127 x_119)))) (forall ( (x_128 (P Int)) ) (=> (exists ( (x_129 Int) ) (mem4 x_129 x_128 x_119)) (forall ( (x_130 Int) ) (=> (mem0 x_130 x_128) (mem0 x_130 g_s3_3))))))))
(define-fun |def_inv_9| () Bool (and (forall ( (x_131 Int) (x_132 Int) ) (=> (mem2 x_132 x_131 g_s24_24) (and (mem0 x_132 g_s17_17) (mem0 x_131 g_s16_16)))) (forall ( (x_133 Int) (x_134 Int) (x_135 Int) ) (=> (and  (mem2 x_133 x_134 g_s24_24) (mem2 x_133 x_135 g_s24_24)) (= x_134 x_135)))))
(define-fun |def_inv_10| () Bool (forall ( (x_136 Int) ) (=> (mem0 x_136 g_s25_25) (mem0 x_136 g_s17_17))))
(define-fun |def_inv_11| () Bool (exists ( (x_137 (P (C Int Bool))) ) (and (forall ( (x_138 Bool) (x_139 Int) ) (= (mem5 x_139 x_138 x_137) (mem5 x_139 x_138 g_s26_26))) (forall ( (x_140 Int) (x_141 Bool) (x_142 Bool) ) (=> (and  (mem5 x_140 x_141 x_137) (mem5 x_140 x_142 x_137)) (= x_141 x_142))) (forall ( (x_143 Int) ) (= (mem0 x_143 g_s18_18) (exists ( (x_144 Bool) ) (mem5 x_143 x_144 x_137)))) (forall ( (x_145 Bool) ) (=> (exists ( (x_146 Int) ) (mem5 x_146 x_145 x_137)) true)))))
(define-fun |def_inv_12| () Bool (exists ( (x_147 (P (C Int Int))) ) (and (forall ( (x_148 Int) (x_149 Int) ) (= (mem2 x_149 x_148 x_147) (mem2 x_149 x_148 g_s27_27))) (forall ( (x_150 Int) (x_151 Int) (x_152 Int) ) (=> (and  (mem2 x_150 x_151 x_147) (mem2 x_150 x_152 x_147)) (= x_151 x_152))) (forall ( (x_153 Int) ) (= (mem0 x_153 g_s18_18) (exists ( (x_154 Int) ) (mem2 x_153 x_154 x_147)))) (forall ( (x_155 Int) ) (=> (exists ( (x_156 Int) ) (mem2 x_156 x_155 x_147)) (mem0 x_155 g_s3_3))))))
(define-fun |def_inv_13| () Bool (and (forall ( (x_157 Int) (x_158 Int) ) (=> (mem2 x_158 x_157 g_s28_28) (and (mem0 x_158 g_s17_17) (mem0 x_157 g_s18_18)))) (forall ( (x_159 Int) (x_160 Int) (x_161 Int) ) (=> (and  (mem2 x_159 x_160 g_s28_28) (mem2 x_159 x_161 g_s28_28)) (= x_160 x_161)))))
(define-fun |def_inv_14| () Bool (and (forall ( (x_162 Int) (x_163 Int) ) (=> (mem2 x_163 x_162 g_s29_29) (and (mem0 x_163 g_s4_4) (mem0 x_162 g_s18_18)))) (forall ( (x_164 Int) (x_165 Int) (x_166 Int) ) (=> (and  (mem2 x_164 x_165 g_s29_29) (mem2 x_164 x_166 g_s29_29)) (= x_165 x_166)))))
(define-fun |def_inv_15| () Bool (forall ( (x_167 Int) ) (=> (mem0 x_167 g_s30_30) (mem0 x_167 g_s4_4))))
(define-fun |def_inv_16| () Bool (and (forall ( (x_168 Int) (x_169 Int) ) (=> (mem2 x_169 x_168 g_s31_31) (and (mem0 x_169 g_s17_17) (mem0 x_168 g_s3_3)))) (forall ( (x_170 Int) (x_171 Int) (x_172 Int) ) (=> (and  (mem2 x_170 x_171 g_s31_31) (mem2 x_170 x_172 g_s31_31)) (= x_171 x_172)))))
(define-fun |def_inv_17| () Bool (and (forall ( (x_173 Int) (x_174 Int) ) (=> (mem2 x_174 x_173 g_s32_32) (and (mem0 x_174 g_s3_3) (mem0 x_173 g_s30_30)))) (forall ( (x_175 Int) (x_176 Int) (x_177 Int) ) (=> (and  (mem2 x_175 x_176 g_s32_32) (mem2 x_175 x_177 g_s32_32)) (= x_176 x_177)))))
(define-fun |def_inv_18| () Bool (forall ( (x_178 Int) ) (= (exists ( (x_179 Int) ) (mem2 x_178 x_179 g_s32_32)) (and  (mem0 x_178 g_s3_3) (not (forall ( (x_180 Int) ) (= (and  (mem0 x_180 g_s30_30) (<= x_180 x_178)) false)))))))
(define-fun |def_inv_19| () Bool (forall ( (l_s33 Int) ) (=> (exists ( (x_181 Int) ) (mem2 l_s33 x_181 g_s32_32)) (forall ((x_182 Int) ) (=> (and  (and  (mem0 x_182 g_s30_30) (<= x_182 l_s33)) (forall ( (x_183 Int) ) (=> (and  (mem0 x_183 g_s30_30) (<= x_183 l_s33)) (>= x_182 x_183)))) (mem2 l_s33 x_182 g_s32_32))))))
(define-fun |def_inv_20| () Bool (forall ( (l_s33 Int) (l_s35 Int) ) (=> (and  (mem0 l_s35 g_s17_17) (mem0 l_s33 g_s3_3) (forall ((x_184 Int) ) (=> (mem2 l_s35 x_184 g_s21_21) (<= x_184 l_s33)))) (or  (and  (forall ((x_185 Int) ) (=> (mem2 l_s35 x_185 g_s21_21) (<= x_185 l_s33))) (forall ( (x_186 Int) ) (= (and (forall ((x_187 Int) ) (=> (mem2 l_s35 x_187 g_s21_21) (and (>= x_186 x_187) (<= x_186 l_s33)))) (mem0 x_186 g_s30_30)) false))) (and  (exists ( (x_188 Int) ) (mem2 l_s33 x_188 g_s32_32)) (forall ((x_189 Int)(x_190 Int) ) (=> (and (mem2 l_s35 x_189 g_s21_21) (mem2 l_s33 x_190 g_s32_32)) (<= x_189 x_190))))))))
(define-fun |def_inv_21| () Bool (exists ( (x_191 (P (C Int Int))) ) (and (forall ( (x_192 Int) (x_193 Int) ) (= (mem2 x_193 x_192 x_191) (mem2 x_193 x_192 g_s36_33))) (forall ( (x_194 Int) (x_195 Int) (x_196 Int) ) (=> (and  (mem2 x_194 x_195 x_191) (mem2 x_194 x_196 x_191)) (= x_195 x_196))) (forall ( (x_197 Int) ) (= (mem0 x_197 g_s16_16) (exists ( (x_198 Int) ) (mem2 x_197 x_198 x_191)))) (forall ( (x_199 Int) ) (=> (exists ( (x_200 Int) ) (mem2 x_200 x_199 x_191)) (mem0 x_199 g_s3_3))))))
(define-fun |def_inv_22| () Bool (exists ( (x_201 (P (C Int Int))) ) (and (forall ( (x_202 Int) (x_203 Int) ) (= (mem2 x_203 x_202 x_201) (mem2 x_203 x_202 g_s37_34))) (forall ( (x_204 Int) (x_205 Int) (x_206 Int) ) (=> (and  (mem2 x_204 x_205 x_201) (mem2 x_204 x_206 x_201)) (= x_205 x_206))) (forall ( (x_207 Int) ) (= (mem0 x_207 g_s16_16) (exists ( (x_208 Int) ) (mem2 x_207 x_208 x_201)))) (forall ( (x_209 Int) ) (=> (exists ( (x_210 Int) ) (mem2 x_210 x_209 x_201)) (<= 0 x_209))))))
(define-fun |def_inv_23| () Bool (exists ( (x_211 (P (C Int Bool))) ) (and (forall ( (x_212 Bool) (x_213 Int) ) (= (mem5 x_213 x_212 x_211) (mem5 x_213 x_212 g_s38_35))) (forall ( (x_214 Int) (x_215 Bool) (x_216 Bool) ) (=> (and  (mem5 x_214 x_215 x_211) (mem5 x_214 x_216 x_211)) (= x_215 x_216))) (forall ( (x_217 Int) ) (= (mem0 x_217 g_s16_16) (exists ( (x_218 Bool) ) (mem5 x_217 x_218 x_211)))) (forall ( (x_219 Bool) ) (=> (exists ( (x_220 Int) ) (mem5 x_220 x_219 x_211)) true)))))
(define-fun |def_inv_24| () Bool (exists ( (x_221 (P (C Int Int))) ) (and (forall ( (x_222 Int) (x_223 Int) ) (= (mem2 x_223 x_222 x_221) (mem2 x_223 x_222 g_s39_36))) (forall ( (x_224 Int) (x_225 Int) (x_226 Int) ) (=> (and  (mem2 x_224 x_225 x_221) (mem2 x_224 x_226 x_221)) (= x_225 x_226))) (forall ( (x_227 Int) ) (= (mem0 x_227 g_s16_16) (exists ( (x_228 Int) ) (mem2 x_227 x_228 x_221)))) (forall ( (x_229 Int) ) (=> (exists ( (x_230 Int) ) (mem2 x_230 x_229 x_221)) (mem0 x_229 g_s17_17))))))
(define-fun |def_inv_25| () Bool (forall ( (l_s35 Int) ) (=> (mem0 l_s35 g_s17_17) (forall ( (x_231 Int) ) (=> (forall ((x_232 (P Int)) ) (=> (mem4 l_s35 x_232 g_s22_22) (mem0 x_231 x_232))) (forall ((x_233 (P Int)) ) (=> (mem4 l_s35 x_233 g_s23_23) (mem0 x_231 x_233))))))))
(define-fun |def_inv_26| () Bool (forall ( (l_s35 Int) ) (=> (mem0 l_s35 g_s17_17) (forall ((x_234 (P Int))(x_235 Int) ) (=> (and (mem4 l_s35 x_234 g_s22_22) (mem2 l_s35 x_235 g_s21_21)) (mem0 x_235 x_234))))))
(define-fun |def_inv_27| () Bool (forall ( (l_s35 Int) ) (=> (exists ( (x_236 Int) ) (mem2 l_s35 x_236 g_s24_24)) (forall ((x_237 Int) ) (=> (mem2 l_s35 x_237 g_s24_24) (mem2 x_237 l_s35 g_s39_36))))))
(define-fun |def_inv_28| () Bool (forall ( (l_s35 Int) (l_s40 Bool) ) (=> (and  (mem0 l_s35 g_s17_17) true (exists ( (x_238 Int) ) (mem2 l_s35 x_238 g_s28_28))) (forall ( (l_s33 Int) ) (=> (forall ((x_239 Int)(x_240 Int) ) (=> (and (mem2 l_s35 x_239 g_s21_21) (and  (or (mem2 l_s35 x_240 g_s21_21) (and  (mem0 x_240 g_s3_3) (exists ( (l_s41 Int) ) (and  (or (and  (mem0 l_s41 g_s16_16) (exists ( (x_242 Int) ) (mem2 l_s41 x_242 g_s39_36)) (mem2 l_s41 l_s35 g_s39_36) (forall ((x_243 Bool) ) (=> (= x_243 true) (mem5 l_s41 x_243 g_s38_35))) (=> (exists ( (x_244 Int) ) (mem2 l_s35 x_244 g_s24_24)) (forall ((x_245 Int)(x_246 Int) ) (=> (and (forall ((x_247 Int) ) (=> (mem2 l_s35 x_247 g_s24_24) (mem2 x_247 x_245 g_s37_34))) (mem2 l_s41 x_246 g_s37_34)) (<= x_245 x_246)))) (forall ((x_248 Int) ) (=> (mem2 l_s41 x_248 g_s37_34) (<= g_s19_19 (+ x_248 g_s9_9))))) (and  (mem0 l_s41 g_s16_16) (exists ( (x_249 Int) ) (mem2 l_s41 x_249 g_s39_36)) (mem2 l_s41 l_s35 g_s39_36) (forall ((x_250 Bool) ) (=> (= x_250 true) (mem5 l_s41 x_250 g_s38_35))) (exists ( (x_251 Int) ) (mem2 l_s35 x_251 g_s24_24)) (mem2 l_s35 l_s41 g_s24_24))) (and  (or  (mem2 l_s41 x_240 g_s36_33) (forall ((x_253 Int)(x_254 Int)(x_255 Int) ) (=> (and (forall ((x_256 Int) ) (=> (mem2 l_s41 x_256 g_s39_36) (mem2 x_256 x_253 g_s21_21))) (mem2 l_s41 x_254 g_s37_34) (forall ((x_257 Int)(x_258 Int) ) (=> (and (mem2 l_s41 x_257 g_s39_36) (forall ((x_259 Int) ) (=> (mem2 l_s41 x_259 g_s37_34) (= x_258 (+ x_259 g_s9_9))))) (mem3 x_257 x_258 x_255 g_s13_13)))) (= x_240 (+ (+ x_253 (* (- (+ x_254 g_s9_9) g_s19_19) g_s8_8)) x_255))))) (forall ( (x_252 Int) ) (=> (or  (mem2 l_s41 x_252 g_s36_33) (forall ((x_260 Int)(x_261 Int)(x_262 Int) ) (=> (and (forall ((x_263 Int) ) (=> (mem2 l_s41 x_263 g_s39_36) (mem2 x_263 x_260 g_s21_21))) (mem2 l_s41 x_261 g_s37_34) (forall ((x_264 Int)(x_265 Int) ) (=> (and (mem2 l_s41 x_264 g_s39_36) (forall ((x_266 Int) ) (=> (mem2 l_s41 x_266 g_s37_34) (= x_265 (+ x_266 g_s9_9))))) (mem3 x_264 x_265 x_262 g_s13_13)))) (= x_252 (+ (+ x_260 (* (- (+ x_261 g_s9_9) g_s19_19) g_s8_8)) x_262))))) (<= x_240 x_252)))))))) (forall ( (x_241 Int) ) (=> (or (mem2 l_s35 x_241 g_s21_21) (and  (mem0 x_241 g_s3_3) (exists ( (l_s41 Int) ) (and  (or (and  (mem0 l_s41 g_s16_16) (exists ( (x_267 Int) ) (mem2 l_s41 x_267 g_s39_36)) (mem2 l_s41 l_s35 g_s39_36) (forall ((x_268 Bool) ) (=> (= x_268 true) (mem5 l_s41 x_268 g_s38_35))) (=> (exists ( (x_269 Int) ) (mem2 l_s35 x_269 g_s24_24)) (forall ((x_270 Int)(x_271 Int) ) (=> (and (forall ((x_272 Int) ) (=> (mem2 l_s35 x_272 g_s24_24) (mem2 x_272 x_270 g_s37_34))) (mem2 l_s41 x_271 g_s37_34)) (<= x_270 x_271)))) (forall ((x_273 Int) ) (=> (mem2 l_s41 x_273 g_s37_34) (<= g_s19_19 (+ x_273 g_s9_9))))) (and  (mem0 l_s41 g_s16_16) (exists ( (x_274 Int) ) (mem2 l_s41 x_274 g_s39_36)) (mem2 l_s41 l_s35 g_s39_36) (forall ((x_275 Bool) ) (=> (= x_275 true) (mem5 l_s41 x_275 g_s38_35))) (exists ( (x_276 Int) ) (mem2 l_s35 x_276 g_s24_24)) (mem2 l_s35 l_s41 g_s24_24))) (and  (or  (mem2 l_s41 x_241 g_s36_33) (forall ((x_278 Int)(x_279 Int)(x_280 Int) ) (=> (and (forall ((x_281 Int) ) (=> (mem2 l_s41 x_281 g_s39_36) (mem2 x_281 x_278 g_s21_21))) (mem2 l_s41 x_279 g_s37_34) (forall ((x_282 Int)(x_283 Int) ) (=> (and (mem2 l_s41 x_282 g_s39_36) (forall ((x_284 Int) ) (=> (mem2 l_s41 x_284 g_s37_34) (= x_283 (+ x_284 g_s9_9))))) (mem3 x_282 x_283 x_280 g_s13_13)))) (= x_241 (+ (+ x_278 (* (- (+ x_279 g_s9_9) g_s19_19) g_s8_8)) x_280))))) (forall ( (x_277 Int) ) (=> (or  (mem2 l_s41 x_277 g_s36_33) (forall ((x_285 Int)(x_286 Int)(x_287 Int) ) (=> (and (forall ((x_288 Int) ) (=> (mem2 l_s41 x_288 g_s39_36) (mem2 x_288 x_285 g_s21_21))) (mem2 l_s41 x_286 g_s37_34) (forall ((x_289 Int)(x_290 Int) ) (=> (and (mem2 l_s41 x_289 g_s39_36) (forall ((x_291 Int) ) (=> (mem2 l_s41 x_291 g_s37_34) (= x_290 (+ x_291 g_s9_9))))) (mem3 x_289 x_290 x_287 g_s13_13)))) (= x_277 (+ (+ x_285 (* (- (+ x_286 g_s9_9) g_s19_19) g_s8_8)) x_287))))) (<= x_241 x_277)))))))) (>= x_240 x_241))))) (and (>= l_s33 (+ x_239 1)) (<= l_s33 x_240)))) (and  (forall ((x_292 Int)(x_293 Bool) ) (=> (and (or  (and (= (and  (forall ((x_294 Int) ) (=> (mem2 l_s35 x_294 g_s21_21) (<= x_294 l_s33))) (forall ( (x_295 Int) ) (= (and (forall ((x_296 Int) ) (=> (mem2 l_s35 x_296 g_s21_21) (and (>= x_295 x_296) (<= x_295 l_s33)))) (mem0 x_295 g_s30_30)) false))) true) (mem2 l_s35 x_292 g_s28_28)) (and (= (and  (forall ((x_297 Int) ) (=> (mem2 l_s35 x_297 g_s21_21) (<= x_297 l_s33))) (forall ( (x_298 Int) ) (= (and (forall ((x_299 Int) ) (=> (mem2 l_s35 x_299 g_s21_21) (and (>= x_298 x_299) (<= x_298 l_s33)))) (mem0 x_298 g_s30_30)) false))) false) (forall ((x_300 Int) ) (=> (mem2 l_s33 x_300 g_s32_32) (mem2 x_300 x_292 g_s29_29))))) (= x_293 true)) (mem5 x_292 x_293 g_s26_26))) (forall ((x_301 Int) ) (=> (forall ((x_302 Int) ) (=> (or  (and (= (and  (forall ((x_303 Int) ) (=> (mem2 l_s35 x_303 g_s21_21) (<= x_303 l_s33))) (forall ( (x_304 Int) ) (= (and (forall ((x_305 Int) ) (=> (mem2 l_s35 x_305 g_s21_21) (and (>= x_304 x_305) (<= x_304 l_s33)))) (mem0 x_304 g_s30_30)) false))) true) (mem2 l_s35 x_302 g_s28_28)) (and (= (and  (forall ((x_306 Int) ) (=> (mem2 l_s35 x_306 g_s21_21) (<= x_306 l_s33))) (forall ( (x_307 Int) ) (= (and (forall ((x_308 Int) ) (=> (mem2 l_s35 x_308 g_s21_21) (and (>= x_307 x_308) (<= x_307 l_s33)))) (mem0 x_307 g_s30_30)) false))) false) (forall ((x_309 Int) ) (=> (mem2 l_s33 x_309 g_s32_32) (mem2 x_309 x_302 g_s29_29))))) (mem2 x_302 x_301 g_s27_27))) (<= l_s33 x_301))) (forall ( (x_310 Int) ) (= (and (forall ((x_311 Int) ) (=> (forall ((x_312 Int) ) (=> (or  (and (= (and  (forall ((x_313 Int) ) (=> (mem2 l_s35 x_313 g_s21_21) (<= x_313 l_s33))) (forall ( (x_314 Int) ) (= (and (forall ((x_315 Int) ) (=> (mem2 l_s35 x_315 g_s21_21) (and (>= x_314 x_315) (<= x_314 l_s33)))) (mem0 x_314 g_s30_30)) false))) true) (mem2 l_s35 x_312 g_s28_28)) (and (= (and  (forall ((x_316 Int) ) (=> (mem2 l_s35 x_316 g_s21_21) (<= x_316 l_s33))) (forall ( (x_317 Int) ) (= (and (forall ((x_318 Int) ) (=> (mem2 l_s35 x_318 g_s21_21) (and (>= x_317 x_318) (<= x_317 l_s33)))) (mem0 x_317 g_s30_30)) false))) false) (forall ((x_319 Int) ) (=> (mem2 l_s33 x_319 g_s32_32) (mem2 x_319 x_312 g_s29_29))))) (mem2 x_312 x_311 g_s27_27))) (and (>= x_310 l_s33) (<= x_310 x_311)))) (mem0 x_310 g_s30_30)) false))))))))
(define-fun |def_inv_29| () Bool (forall ( (l_s35 Int) (l_s42 Bool) ) (=> (and  (mem0 l_s35 g_s17_17) true (exists ( (x_320 Int) ) (mem2 l_s35 x_320 g_s28_28))) (forall ( (l_s33 Int) ) (=> (and  (forall ((x_321 (P Int)) ) (=> (or  (and (= (mem0 l_s35 g_s25_25) true) (mem4 l_s35 x_321 g_s23_23)) (and (= (mem0 l_s35 g_s25_25) false) (mem4 l_s35 x_321 g_s22_22))) (mem0 l_s33 x_321))) (forall ((x_322 Int) ) (=> (mem2 l_s35 x_322 g_s21_21) (<= x_322 l_s33)))) (and  (forall ((x_323 Int) ) (=> (forall ((x_324 Int) ) (=> (or  (and (= (and  (forall ((x_325 Int) ) (=> (mem2 l_s35 x_325 g_s21_21) (<= x_325 l_s33))) (forall ( (x_326 Int) ) (= (and (forall ((x_327 Int) ) (=> (mem2 l_s35 x_327 g_s21_21) (and (>= x_326 x_327) (<= x_326 l_s33)))) (mem0 x_326 g_s30_30)) false))) true) (mem2 l_s35 x_324 g_s28_28)) (and (= (and  (forall ((x_328 Int) ) (=> (mem2 l_s35 x_328 g_s21_21) (<= x_328 l_s33))) (forall ( (x_329 Int) ) (= (and (forall ((x_330 Int) ) (=> (mem2 l_s35 x_330 g_s21_21) (and (>= x_329 x_330) (<= x_329 l_s33)))) (mem0 x_329 g_s30_30)) false))) false) (forall ((x_331 Int) ) (=> (mem2 l_s33 x_331 g_s32_32) (mem2 x_331 x_324 g_s29_29))))) (mem2 x_324 x_323 g_s27_27))) (<= l_s33 x_323))) (forall ( (x_332 Int) ) (= (and (forall ((x_333 Int) ) (=> (forall ((x_334 Int) ) (=> (or  (and (= (and  (forall ((x_335 Int) ) (=> (mem2 l_s35 x_335 g_s21_21) (<= x_335 l_s33))) (forall ( (x_336 Int) ) (= (and (forall ((x_337 Int) ) (=> (mem2 l_s35 x_337 g_s21_21) (and (>= x_336 x_337) (<= x_336 l_s33)))) (mem0 x_336 g_s30_30)) false))) true) (mem2 l_s35 x_334 g_s28_28)) (and (= (and  (forall ((x_338 Int) ) (=> (mem2 l_s35 x_338 g_s21_21) (<= x_338 l_s33))) (forall ( (x_339 Int) ) (= (and (forall ((x_340 Int) ) (=> (mem2 l_s35 x_340 g_s21_21) (and (>= x_339 x_340) (<= x_339 l_s33)))) (mem0 x_339 g_s30_30)) false))) false) (forall ((x_341 Int) ) (=> (mem2 l_s33 x_341 g_s32_32) (mem2 x_341 x_334 g_s29_29))))) (mem2 x_334 x_333 g_s27_27))) (and (>= x_332 l_s33) (<= x_332 x_333)))) (mem0 x_332 g_s30_30)) false))))))))
(define-fun |def_sets_0| () Bool (and  (not (forall ( (x_342 Int) ) (= (mem0 x_342 g_s0_0) false))) (and  (forall ( (x_345 Int) ) (=> (mem0 x_345 g_s0_0) true)) (exists ( (x_343 Int) (x_344 (P (C Int Int))) ) (and (and (exists ( (x_346 (P (C Int Int))) ) (and (forall ( (x_347 Int) (x_348 Int) ) (= (mem2 x_348 x_347 x_346) (mem2 x_348 x_347 x_344))) (forall ( (x_349 Int) (x_350 Int) (x_351 Int) ) (=> (and  (mem2 x_349 x_350 x_346) (mem2 x_349 x_351 x_346)) (= x_350 x_351))) (forall ( (x_352 Int) ) (= (and (>= x_352 1) (<= x_352 x_343)) (exists ( (x_353 Int) ) (mem2 x_352 x_353 x_346)))) (forall ( (x_354 Int) ) (=> (exists ( (x_355 Int) ) (mem2 x_355 x_354 x_346)) (mem0 x_354 g_s0_0))))) (forall ( (x_356 Int) ) (=> (mem0 x_356 g_s0_0) (exists ( (x_357 Int) ) (mem2 x_357 x_356 x_344))))) (forall ( (x_358 Int) (x_359 Int) (x_360 Int) ) (=> (and  (mem2 x_359 x_358 x_344) (mem2 x_360 x_358 x_344)) (= x_359 x_360))))))))
(define-fun |def_sets_1| () Bool (and  (not (forall ( (x_361 Int) ) (= (mem0 x_361 g_s1_1) false))) (and  (forall ( (x_364 Int) ) (=> (mem0 x_364 g_s1_1) true)) (exists ( (x_362 Int) (x_363 (P (C Int Int))) ) (and (and (exists ( (x_365 (P (C Int Int))) ) (and (forall ( (x_366 Int) (x_367 Int) ) (= (mem2 x_367 x_366 x_365) (mem2 x_367 x_366 x_363))) (forall ( (x_368 Int) (x_369 Int) (x_370 Int) ) (=> (and  (mem2 x_368 x_369 x_365) (mem2 x_368 x_370 x_365)) (= x_369 x_370))) (forall ( (x_371 Int) ) (= (and (>= x_371 1) (<= x_371 x_362)) (exists ( (x_372 Int) ) (mem2 x_371 x_372 x_365)))) (forall ( (x_373 Int) ) (=> (exists ( (x_374 Int) ) (mem2 x_374 x_373 x_365)) (mem0 x_373 g_s1_1))))) (forall ( (x_375 Int) ) (=> (mem0 x_375 g_s1_1) (exists ( (x_376 Int) ) (mem2 x_376 x_375 x_363))))) (forall ( (x_377 Int) (x_378 Int) (x_379 Int) ) (=> (and  (mem2 x_378 x_377 x_363) (mem2 x_379 x_377 x_363)) (= x_378 x_379))))))))
(define-fun |def_sets_2| () Bool (and  (not (forall ( (x_380 Int) ) (= (mem0 x_380 g_s2_2) false))) (and  (forall ( (x_383 Int) ) (=> (mem0 x_383 g_s2_2) true)) (exists ( (x_381 Int) (x_382 (P (C Int Int))) ) (and (and (exists ( (x_384 (P (C Int Int))) ) (and (forall ( (x_385 Int) (x_386 Int) ) (= (mem2 x_386 x_385 x_384) (mem2 x_386 x_385 x_382))) (forall ( (x_387 Int) (x_388 Int) (x_389 Int) ) (=> (and  (mem2 x_387 x_388 x_384) (mem2 x_387 x_389 x_384)) (= x_388 x_389))) (forall ( (x_390 Int) ) (= (and (>= x_390 1) (<= x_390 x_381)) (exists ( (x_391 Int) ) (mem2 x_390 x_391 x_384)))) (forall ( (x_392 Int) ) (=> (exists ( (x_393 Int) ) (mem2 x_393 x_392 x_384)) (mem0 x_392 g_s2_2))))) (forall ( (x_394 Int) ) (=> (mem0 x_394 g_s2_2) (exists ( (x_395 Int) ) (mem2 x_395 x_394 x_382))))) (forall ( (x_396 Int) (x_397 Int) (x_398 Int) ) (=> (and  (mem2 x_397 x_396 x_382) (mem2 x_398 x_396 x_382)) (= x_397 x_398))))))))
; PO group s57
(assert (! |def_lprp_0| :named |lprp0|))
(assert (! |def_lprp_1| :named |lprp1|))
(assert (! |def_lprp_2| :named |lprp2|))
(assert (! |def_lprp_3| :named |lprp3|))
(assert (! |def_lprp_4| :named |lprp4|))
(assert (! |def_lprp_5| :named |lprp5|))
(assert (! |def_lprp_6| :named |lprp6|))
(assert (! |def_lprp_7| :named |lprp7|))
(assert (! |def_lprp_8| :named |lprp8|))
(assert (! |def_lprp_9| :named |lprp9|))
(assert (! |def_lprp_10| :named |lprp10|))
(assert (! |def_lprp_11| :named |lprp11|))
(assert (! |def_lprp_12| :named |lprp12|))
(assert (! |def_lprp_13| :named |lprp13|))
(assert (! |def_lprp_14| :named |lprp14|))
(assert (! |def_lprp_15| :named |lprp15|))
(assert (! |def_lprp_16| :named |lprp16|))
(define-fun lh_1 () Bool (forall ( (x_399 Int) ) (= (mem0 x_399 g_s30_30) (mem0 x_399 g_s4_4))))
(define-fun lh_2 () Bool (and (forall ( (x_400 Int) (x_401 Int) ) (=> (mem2 x_401 x_400 g_s32_32) (and (mem0 x_401 g_s3_3) (mem0 x_400 g_s30_30)))) (forall ( (x_402 Int) (x_403 Int) (x_404 Int) ) (=> (and  (mem2 x_402 x_403 g_s32_32) (mem2 x_402 x_404 g_s32_32)) (= x_403 x_404)))))
(define-fun lh_3 () Bool (forall ( (x_405 Int) ) (= (exists ( (x_406 Int) ) (mem2 x_405 x_406 g_s32_32)) (and  (mem0 x_405 g_s3_3) (not (forall ( (x_407 Int) ) (= (and  (mem0 x_407 g_s30_30) (<= x_407 x_405)) false)))))))
(define-fun lh_4 () Bool (exists ( (x_408 Int) ) (mem2 g_s33_37 x_408 g_s32_32)))
; PO 2 in group s57
(assert (! (not (=> (and lh_1 lh_2 lh_3 lh_4) (and  (forall ( (x_411 Int) ) (=> (and (and  (mem0 x_411 g_s4_4) (<= x_411 g_s33_37)) (<= 0 x_411)) (<= 0 x_411))) (exists ( (x_409 Int) (x_410 (P (C Int Int))) ) (and (and (exists ( (x_412 (P (C Int Int))) ) (and (forall ( (x_413 Int) (x_414 Int) ) (= (mem2 x_414 x_413 x_412) (mem2 x_414 x_413 x_410))) (forall ( (x_415 Int) (x_416 Int) (x_417 Int) ) (=> (and  (mem2 x_415 x_416 x_412) (mem2 x_415 x_417 x_412)) (= x_416 x_417))) (forall ( (x_418 Int) ) (= (and (>= x_418 1) (<= x_418 x_409)) (exists ( (x_419 Int) ) (mem2 x_418 x_419 x_412)))) (forall ( (x_420 Int) ) (=> (exists ( (x_421 Int) ) (mem2 x_421 x_420 x_412)) (and (and  (mem0 x_420 g_s4_4) (<= x_420 g_s33_37)) (<= 0 x_420)))))) (forall ( (x_422 Int) ) (=> (and (and  (mem0 x_422 g_s4_4) (<= x_422 g_s33_37)) (<= 0 x_422)) (exists ( (x_423 Int) ) (mem2 x_423 x_422 x_410))))) (forall ( (x_424 Int) (x_425 Int) (x_426 Int) ) (=> (and  (mem2 x_425 x_424 x_410) (mem2 x_426 x_424 x_410)) (= x_425 x_426)))))))) :named goal))
(check-sat)
(exit)
